5 5
2 16 1 48 4 27 3 33 0 23
2 45 3 83 4 83 0 22 1 42
2 33 0 10 1 47 4 96 3 79
3 39 2 46 4 72 1 51 0 25
1 82 2 15 4 58 0 59 3 26
-1
0 3 5
0 3 4 5
0 1 3 4 5
0 1 3 4 5
0 1 3 4 5
-2
100 152
290 254 376
52 136 222 337
57 180 232 355
101 180 249 294

464 12
4 11 23 19 8
1 20 12 18 9
0 16 10 21 5
15 3 6 14 24
2 17 22 13 7
